Using license file /home/benedond/gurobi.lic
Using gurobi.env file
Set parameter Threads to value 1
Academic license - for non-commercial use only
Changed value of parameter TimeLimit to 300.0
   Prev: inf  Min: 0.0  Max: inf  Default: inf
Gurobi Optimizer version 9.0.1 build v9.0.1rc0 (linux64)
Optimize a model with 240 rows, 210 columns and 828 nonzeros
Model fingerprint: 0x456f818b
Variable types: 10 continuous, 200 integer (200 binary)
Coefficient statistics:
  Matrix range     [1e+00, 5e+02]
  Objective range  [6e+01, 5e+02]
  Bounds range     [1e+00, 1e+00]
  RHS range        [1e+00, 5e+02]
Presolve removed 150 rows and 137 columns
Presolve time: 0.01s
Presolved: 90 rows, 73 columns, 540 nonzeros
Variable types: 6 continuous, 67 integer (67 binary)
Found heuristic solution: objective 1938.0000000

Root relaxation: cutoff, 14 iterations, 0.00 seconds

    Nodes    |    Current Node    |     Objective Bounds      |     Work
 Expl Unexpl |  Obj  Depth IntInf | Incumbent    BestBd   Gap | It/Node Time

     0     0     cutoff    0      1938.00000 1938.00000  0.00%     -    0s

Explored 0 nodes (14 simplex iterations) in 0.01 seconds
Thread count was 1 (of 4 available processors)

Solution count 1: 1938 

Optimal solution found (tolerance 1.00e-04)
Best objective 1.938000000000e+03, best bound 1.938000000000e+03, gap 0.0000%
